
  12   12
  10   10   10   10   10   10   10   10   10   10   10   10

   0   0   0   0   0   0   0   0   0   0   0   0   0   2 2 3 
   9   0   0   5   0   0   1   1   0   0   0   1   1   5 11 10 7 5 4 
   6   0   0   0   0   1   0   0   0   1   1   8   0   3 9 7 6 
   7   0   0   0   0   0   0   0   1   0   0   2   0   2 8 6 
   8   0   1   0   0   0   0   6   0   0   0   7   0   1 6 
   2   0   0   0   5   5   0   8   8   0   0   0   0   1 12
   8   0   0   0   0   0   0   4   6   0   0   3   0   1 12
   7   5   0   0   0   0   0   0   0   0   0   0   6   1 12
   5   0   0   0   0   7   0   4   0   0   5   9   0   1 12
   9   0   0   0   0   7   0   7   0   9   5   0   0   1 12
   3   0   9   0   0   0   9   0   0   0   9   0   8   1 12
   0   0   0   0   0   0   0   0   0   0   0   0   0   0 
